VALUE 26318
1 49
1 73
1 27
2 28
3 65
3 77
3 46
3 111
4 153
4 76
5 29
5 239
5 15
6 66
6 121
6 29
7 17
7 76
8 183
9 28
10 49
11 287
12 70
13 36
13 57
14 121
14 271
15 53
16 44
17 65
18 39
18 72
19 73
20 29
22 54
23 67
24 122
25 217
27 80
27 34
27 38
28 49
29 209
29 50
29 36
30 37
30 46
31 82
31 67
31 52
31 39
31 57
32 73
33 137
34 52
35 110
36 136
36 122
36 42
37 165
37 137
38 61
38 143
40 68
41 72
41 74
43 51
44 208
45 156
45 205
48 111
49 316
50 182
51 59
52 187
52 76
53 134
55 185
58 187
59 217
59 143
60 180
62 76
63 208
63 136
64 82
68 153
69 165
69 156
70 134
73 180
75 209
110 205
182 183
185 239
262 18
262 79
267 38
267 26
267 78
267 47
271 21
286 305
286 52
287 44
294 48
294 54
305 56
316 71